name="r07";
nr_vertices=141;
nr_edges=1253;
neighborhoods=[{1,2,3,4,5,6,7,8,9,10,11,21,56,67,77,92,105,115,124,134},{0,2,3,4,5,6,7,8,9,10,12,48,58,69,78,87,106,117,125},{0,1,3,4,5,6,7,8,9,10,13,31,49,79,88,93,107,118,126,136},{0,1,2,4,5,6,7,8,9,10,32,41,59,89,94,108,127},{0,1,2,3,5,6,7,8,9,10,14,22,33,60,95,128},{0,1,2,3,4,6,7,8,9,10,15,23,34,42,50,61,80,96,109,119,137},{0,1,2,3,4,5,7,8,9,10,16,24,35,43,51,62,70,81,97},{0,1,2,3,4,5,6,8,9,10,17,25,37,53,63,72,83,99,110,120,130},{0,1,2,3,4,5,6,7,9,10,18,73,100,111,121,138},{0,1,2,3,4,5,6,7,8,10,19,26,38,44,64,74,84,90,101,112},{0,1,2,3,4,5,6,7,8,9,20,27,39,54,65,75,85,91,102,113,122,131,139},{0,12,13,14,15,16,17,18,19,20,21,56,67,77,92,105,115,124,134},{1,11,13,14,15,16,17,18,19,20,48,58,69,78,87,106,117,125},{2,11,12,14,15,16,17,18,19,20,31,49,79,88,93,107,118,126,136},{4,11,12,13,15,16,17,18,19,20,22,33,60,95,128},{5,11,12,13,14,16,17,18,19,20,23,34,42,50,61,80,96,109,119,137},{6,11,12,13,14,15,17,18,19,20,24,35,43,51,62,70,81,97},{7,11,12,13,14,15,16,18,19,20,25,37,53,63,72,83,99,110,120,130},{8,11,12,13,14,15,16,17,19,20,73,100,111,121,138},{9,11,12,13,14,15,16,17,18,20,26,38,44,64,74,84,90,101,112},{10,11,12,13,14,15,16,17,18,19,27,39,54,65,75,85,91,102,113,122,131,139},{0,11,22,23,24,25,26,27,28,29,56,67,77,92,105,115,124,134},{4,14,21,23,24,25,26,27,28,29,33,60,95,128},{5,15,21,22,24,25,26,27,28,29,34,42,50,61,80,96,109,119,137},{6,16,21,22,23,25,26,27,28,29,35,43,51,62,70,81,97},{7,17,21,22,23,24,26,27,28,29,37,53,63,72,83,99,110,120,130},{9,19,21,22,23,24,25,27,28,29,38,44,64,74,84,90,101,112},{10,20,21,22,23,24,25,26,28,29,39,54,65,75,85,91,102,113,122,131,139},{21,22,23,24,25,26,27,29,40,45,103,114,132},{21,22,23,24,25,26,27,28,46,55,66,76,104,123,133,140},{31,32,33,34,35,36,37,38,39,40,47,57,68,86,116,135},{2,13,30,32,33,34,35,36,37,38,39,40,49,79,88,93,107,118,126,136},{3,30,31,33,34,35,36,37,38,39,40,41,59,89,94,108,127},{4,14,22,30,31,32,34,35,36,37,38,39,40,60,95,128},{5,15,23,30,31,32,33,35,36,37,38,39,40,42,50,61,80,96,109,119,137},{6,16,24,30,31,32,33,34,36,37,38,39,40,43,51,62,70,81,97},{30,31,32,33,34,35,37,38,39,40,52,71,82,98,129},{7,17,25,30,31,32,33,34,35,36,38,39,40,53,63,72,83,99,110,120,130},{9,19,26,30,31,32,33,34,35,36,37,39,40,44,64,74,84,90,101,112},{10,20,27,30,31,32,33,34,35,36,37,38,40,54,65,75,85,91,102,113,122,131,139},{28,30,31,32,33,34,35,36,37,38,39,45,103,114,132},{3,32,42,43,44,45,46,59,89,94,108,127},{5,15,23,34,41,43,44,45,46,50,61,80,96,109,119,137},{6,16,24,35,41,42,44,45,46,51,62,70,81,97},{9,19,26,38,41,42,43,45,46,64,74,84,90,101,112},{28,40,41,42,43,44,46,103,114,132},{29,41,42,43,44,45,55,66,76,104,123,133,140},{30,48,49,50,51,52,53,54,55,57,68,86,116,135},{1,12,47,49,50,51,52,53,54,55,58,69,78,87,106,117,125},{2,13,31,47,48,50,51,52,53,54,55,79,88,93,107,118,126,136},{5,15,23,34,42,47,48,49,51,52,53,54,55,61,80,96,109,119,137},{6,16,24,35,43,47,48,49,50,52,53,54,55,62,70,81,97},{36,47,48,49,50,51,53,54,55,71,82,98,129},{7,17,25,37,47,48,49,50,51,52,54,55,63,72,83,99,110,120,130},{10,20,27,39,47,48,49,50,51,52,53,55,65,75,85,91,102,113,122,131,139},{29,46,47,48,49,50,51,52,53,54,66,76,104,123,133,140},{0,11,21,57,58,59,60,61,62,63,64,65,66,67,77,92,105,115,124,134},{30,47,56,58,59,60,61,62,63,64,65,66,68,86,116,135},{1,12,48,56,57,59,60,61,62,63,64,65,66,69,78,87,106,117,125},{3,32,41,56,57,58,60,61,62,63,64,65,66,89,94,108,127},{4,14,22,33,56,57,58,59,61,62,63,64,65,66,95,128},{5,15,23,34,42,50,56,57,58,59,60,62,63,64,65,66,80,96,109,119,137},{6,16,24,35,43,51,56,57,58,59,60,61,63,64,65,66,70,81,97},{7,17,25,37,53,56,57,58,59,60,61,62,64,65,66,72,83,99,110,120,130},{9,19,26,38,44,56,57,58,59,60,61,62,63,65,66,74,84,90,101,112},{10,20,27,39,54,56,57,58,59,60,61,62,63,64,66,75,85,91,102,113,122,131,139},{29,46,55,56,57,58,59,60,61,62,63,64,65,76,104,123,133,140},{0,11,21,56,68,69,70,71,72,73,74,75,76,77,92,105,115,124,134},{30,47,57,67,69,70,71,72,73,74,75,76,86,116,135},{1,12,48,58,67,68,70,71,72,73,74,75,76,78,87,106,117,125},{6,16,24,35,43,51,62,67,68,69,71,72,73,74,75,76,81,97},{36,52,67,68,69,70,72,73,74,75,76,82,98,129},{7,17,25,37,53,63,67,68,69,70,71,73,74,75,76,83,99,110,120,130},{8,18,67,68,69,70,71,72,74,75,76,100,111,121,138},{9,19,26,38,44,64,67,68,69,70,71,72,73,75,76,84,90,101,112},{10,20,27,39,54,65,67,68,69,70,71,72,73,74,76,85,91,102,113,122,131,139},{29,46,55,66,67,68,69,70,71,72,73,74,75,104,123,133,140},{0,11,21,56,67,78,79,80,81,82,83,84,85,92,105,115,124,134},{1,12,48,58,69,77,79,80,81,82,83,84,85,87,106,117,125},{2,13,31,49,77,78,80,81,82,83,84,85,88,93,107,118,126,136},{5,15,23,34,42,50,61,77,78,79,81,82,83,84,85,96,109,119,137},{6,16,24,35,43,51,62,70,77,78,79,80,82,83,84,85,97},{36,52,71,77,78,79,80,81,83,84,85,98,129},{7,17,25,37,53,63,72,77,78,79,80,81,82,84,85,99,110,120,130},{9,19,26,38,44,64,74,77,78,79,80,81,82,83,85,90,101,112},{10,20,27,39,54,65,75,77,78,79,80,81,82,83,84,91,102,113,122,131,139},{30,47,57,68,87,88,89,90,91,116,135},{1,12,48,58,69,78,86,88,89,90,91,106,117,125},{2,13,31,49,79,86,87,89,90,91,93,107,118,126,136},{3,32,41,59,86,87,88,90,91,94,108,127},{9,19,26,38,44,64,74,84,86,87,88,89,91,101,112},{10,20,27,39,54,65,75,85,86,87,88,89,90,102,113,122,131,139},{0,11,21,56,67,77,93,94,95,96,97,98,99,100,101,102,103,104,105,115,124,134},{2,13,31,49,79,88,92,94,95,96,97,98,99,100,101,102,103,104,107,118,126,136},{3,32,41,59,89,92,93,95,96,97,98,99,100,101,102,103,104,108,127},{4,14,22,33,60,92,93,94,96,97,98,99,100,101,102,103,104,128},{5,15,23,34,42,50,61,80,92,93,94,95,97,98,99,100,101,102,103,104,109,119,137},{6,16,24,35,43,51,62,70,81,92,93,94,95,96,98,99,100,101,102,103,104},{36,52,71,82,92,93,94,95,96,97,99,100,101,102,103,104,129},{7,17,25,37,53,63,72,83,92,93,94,95,96,97,98,100,101,102,103,104,110,120,130},{8,18,73,92,93,94,95,96,97,98,99,101,102,103,104,111,121,138},{9,19,26,38,44,64,74,84,90,92,93,94,95,96,97,98,99,100,102,103,104,112},{10,20,27,39,54,65,75,85,91,92,93,94,95,96,97,98,99,100,101,103,104,113,122,131,139},{28,40,45,92,93,94,95,96,97,98,99,100,101,102,104,114,132},{29,46,55,66,76,92,93,94,95,96,97,98,99,100,101,102,103,123,133,140},{0,11,21,56,67,77,92,106,107,108,109,110,111,112,113,114,115,124,134},{1,12,48,58,69,78,87,105,107,108,109,110,111,112,113,114,117,125},{2,13,31,49,79,88,93,105,106,108,109,110,111,112,113,114,118,126,136},{3,32,41,59,89,94,105,106,107,109,110,111,112,113,114,127},{5,15,23,34,42,50,61,80,96,105,106,107,108,110,111,112,113,114,119,137},{7,17,25,37,53,63,72,83,99,105,106,107,108,109,111,112,113,114,120,130},{8,18,73,100,105,106,107,108,109,110,112,113,114,121,138},{9,19,26,38,44,64,74,84,90,101,105,106,107,108,109,110,111,113,114},{10,20,27,39,54,65,75,85,91,102,105,106,107,108,109,110,111,112,114,122,131,139},{28,40,45,103,105,106,107,108,109,110,111,112,113,132},{0,11,21,56,67,77,92,105,116,117,118,119,120,121,122,123,124,134},{30,47,57,68,86,115,117,118,119,120,121,122,123,135},{1,12,48,58,69,78,87,106,115,116,118,119,120,121,122,123,125},{2,13,31,49,79,88,93,107,115,116,117,119,120,121,122,123,126,136},{5,15,23,34,42,50,61,80,96,109,115,116,117,118,120,121,122,123,137},{7,17,25,37,53,63,72,83,99,110,115,116,117,118,119,121,122,123,130},{8,18,73,100,111,115,116,117,118,119,120,122,123,138},{10,20,27,39,54,65,75,85,91,102,113,115,116,117,118,119,120,121,123,131,139},{29,46,55,66,76,104,115,116,117,118,119,120,121,122,133,140},{0,11,21,56,67,77,92,105,115,125,126,127,128,129,130,131,132,133,134},{1,12,48,58,69,78,87,106,117,124,126,127,128,129,130,131,132,133},{2,13,31,49,79,88,93,107,118,124,125,127,128,129,130,131,132,133,136},{3,32,41,59,89,94,108,124,125,126,128,129,130,131,132,133},{4,14,22,33,60,95,124,125,126,127,129,130,131,132,133},{36,52,71,82,98,124,125,126,127,128,130,131,132,133},{7,17,25,37,53,63,72,83,99,110,120,124,125,126,127,128,129,131,132,133},{10,20,27,39,54,65,75,85,91,102,113,122,124,125,126,127,128,129,130,132,133,139},{28,40,45,103,114,124,125,126,127,128,129,130,131,133},{29,46,55,66,76,104,123,124,125,126,127,128,129,130,131,132,140},{0,11,21,56,67,77,92,105,115,124,135,136,137,138,139,140},{30,47,57,68,86,116,134,136,137,138,139,140},{2,13,31,49,79,88,93,107,118,126,134,135,137,138,139,140},{5,15,23,34,42,50,61,80,96,109,119,134,135,136,138,139,140},{8,18,73,100,111,121,134,135,136,137,139,140},{10,20,27,39,54,65,75,85,91,102,113,122,131,134,135,136,137,138,140},{29,46,55,66,76,104,123,133,134,135,136,137,138,139}];
weights=[313,652,455,220,423,237,244,376,446,228,403,298,446,313,581,317,357,334,533,312,608,558,276,234,593,324,554,499,274,670,276,513,318,575,547,255,213,488,575,623,321,250,206,501,635,279,557,450,618,526,575,667,637,375,617,457,417,235,588,431,547,282,561,241,375,287,373,272,341,597,292,669,211,303,384,202,405,412,526,399,271,434,339,593,491,701,263,527,380,483,350,283,370,277,536,531,447,522,437,212,209,471,293,255,640,491,587,681,615,693,556,408,237,342,498,305,561,609,323,652,637,535,682,332,538,531,457,549,319,546,590,228,348,412,665,653,628,317,696,300,517];
